%chk=cyclopropynylidyne.chk
%mem=6MW
%nproc=1
# hf/3-21g geom=connectivity

Title Card Required

0 1
 C                 -2.10838596    0.13842719    0.20707290
 C                 -2.40701721    1.26838281    1.23131077
 H                 -2.67835554    2.26489983    0.90209149
 C                 -1.06146528    0.62689701    0.79220479
 H                 -2.79573012    0.96786756    2.19307401

 1 2 1.0 4 1.0
 2 3 1.0 4 1.0 5 1.0
 3
 4
 5

