%chk=s1.chk
%mem=6MW
%nproc=1
# hf/3-21g geom=connectivity

Title Card Required

0 1
 C                 -1.21210303   -1.05057214    0.00000000
 O                 -0.57995529    0.04399865    0.00000000
 O                 -2.47610302   -1.05040154   -0.00000000
 O                 -0.58025078   -2.14531355   -0.00000000

 1 2 1.0 3 1.0 4 1.0
 2
 3
 4

