%chk=s1.chk
%mem=6MW
%nproc=1
# hf/3-21g geom=connectivity

Title Card Required

0 1
 C                 -1.19020583   -1.05890799    0.00000000
 O                 -0.55828813    0.05538148    0.00000000
 O                 -2.50470414   -1.02258717    0.00000000
 O                 -0.53801515   -2.13932056    0.00000000

 1 2 1.0 3 1.0 4 1.0
 2
 3
 4

