%chk=s1.chk
%mem=6MW
%nproc=1
# hf/3-21g geom=connectivity

Title Card Required

0 1
 C                 -1.28154069   -1.05056278    0.00000000
 O                 -0.63644154    0.12735746    0.00000000
 O                 -2.48254068   -1.05040068    0.00000000
 O                 -0.63675953   -2.22865711    0.00000000

 1 2 1.0 3 2.0 4 1.0
 2
 3
 4

